Traveling Salesman Problem/TSP_generados/Aleatorio1621103273_7.tsp
NAME: Aleatorio1621103273_7.tsp
COMMENT: Randomly generated scenario
TYPE: TSP
DIMENSION: 7
EDGE_WEIGHT_TYPE: ATT
NODE_COORD_SECTION
1 18.59 14.16
2 16.64 42.98
3 4.75 37.3
4 32.07 7.02
5 32.31 36.83
6 1.24 44.58
7 43.55 16.61
