Traveling Salesman Problem/TSP_generados/Aleatorio1621103273_7.opt.tour
NAME: Aleatorio1621103273_7.opt.tour
COMMENT: Optimal solution for Aleatorio1621103273_7 (120.70837940478215)
TYPE: TOUR
DIMENSION: 7
TOUR_SECTION
1 3 6 2 5 7 4
-1
EOF
